NAME : 	X-n317-k53	
COMMENT : 	"Generated by Uchoa, Pecin, Pessoa, Poggi, Subramanian, and Vidal (2013)"	
TYPE : 	CVRP	
DIMENSION : 	317	
EDGE_WEIGHT_TYPE : 	EUC_2D	
CAPACITY : 	6	
NODE_COORD_SECTION		
1	0	0
2	971	544
3	564	976
4	266	4
5	395	95
6	379	271
7	936	538
8	980	578
9	242	92
10	476	74
11	247	159
12	359	108
13	473	941
14	490	947
15	548	950
16	389	864
17	916	664
18	212	91
19	415	182
20	961	553
21	423	232
22	596	931
23	955	566
24	534	93
25	252	6
26	950	580
27	517	950
28	942	618
29	636	981
30	629	809
31	508	35
32	108	130
33	391	19
34	208	183
35	991	680
36	428	48
37	272	220
38	931	581
39	327	128
40	966	514
41	313	202
42	267	1
43	404	925
44	985	594
45	895	429
46	348	12
47	316	258
48	238	20
49	970	490
50	854	586
51	293	104
52	628	919
53	880	597
54	353	241
55	753	728
56	291	93
57	993	439
58	382	125
59	230	36
60	984	471
61	489	23
62	277	137
63	593	171
64	378	204
65	411	87
66	207	85
67	538	991
68	906	631
69	343	72
70	445	68
71	673	268
72	576	951
73	388	66
74	953	504
75	434	145
76	530	11
77	632	879
78	541	968
79	353	851
80	629	868
81	593	896
82	936	411
83	272	40
84	276	93
85	469	169
86	359	894
87	548	998
88	52	69
89	397	58
90	507	145
91	451	162
92	646	996
93	532	906
94	220	126
95	536	831
96	482	212
97	137	53
98	511	991
99	978	506
100	300	111
101	907	711
102	908	488
103	222	137
104	266	48
105	423	67
106	268	125
107	434	25
108	548	982
109	511	888
110	371	256
111	440	179
112	331	82
113	965	439
114	545	968
115	447	40
116	785	664
117	915	669
118	468	98
119	247	6
120	271	70
121	260	110
122	902	679
123	926	874
124	587	988
125	368	419
126	351	158
127	967	685
128	559	968
129	278	56
130	877	507
131	353	164
132	984	540
133	380	89
134	886	376
135	943	408
136	420	204
137	386	78
138	219	18
139	497	961
140	542	965
141	718	869
142	297	45
143	414	69
144	606	959
145	575	99
146	330	101
147	364	74
148	257	22
149	371	64
150	600	994
151	951	536
152	534	896
153	297	96
154	467	149
155	438	917
156	385	883
157	233	239
158	481	945
159	414	128
160	602	752
161	592	151
162	267	82
163	587	946
164	728	991
165	242	136
166	292	9
167	916	480
168	494	918
169	2	149
170	24	105
171	933	577
172	227	49
173	651	947
174	991	512
175	805	704
176	253	66
177	628	824
178	199	18
179	833	534
180	633	864
181	343	42
182	565	991
183	603	996
184	404	30
185	434	92
186	822	465
187	393	81
188	351	78
189	390	56
190	536	967
191	553	985
192	652	868
193	472	900
194	824	545
195	370	189
196	196	21
197	524	974
198	590	878
199	551	951
200	480	48
201	384	185
202	327	228
203	567	966
204	537	964
205	929	577
206	491	141
207	336	12
208	496	953
209	149	57
210	394	63
211	250	252
212	238	63
213	245	222
214	263	50
215	231	37
216	512	13
217	868	481
218	994	635
219	697	87
220	989	535
221	462	954
222	355	240
223	335	89
224	817	544
225	501	154
226	196	66
227	389	36
228	413	62
229	277	111
230	245	95
231	878	469
232	407	109
233	326	52
234	999	601
235	974	433
236	578	969
237	548	784
238	519	21
239	436	135
240	986	436
241	483	19
242	420	197
243	417	122
244	825	609
245	347	96
246	967	530
247	749	542
248	271	20
249	307	72
250	420	130
251	821	398
252	147	97
253	950	512
254	394	190
255	962	584
256	934	530
257	611	926
258	323	185
259	966	530
260	378	189
261	334	189
262	340	77
263	265	136
264	303	315
265	533	852
266	562	977
267	995	477
268	862	649
269	379	190
270	935	565
271	178	11
272	465	237
273	214	179
274	479	913
275	903	530
276	379	102
277	268	8
278	922	511
279	403	33
280	289	71
281	474	196
282	374	90
283	557	25
284	957	581
285	134	103
286	554	116
287	392	111
288	200	392
289	929	514
290	521	905
291	341	210
292	394	77
293	339	130
294	938	635
295	315	258
296	970	710
297	376	48
298	402	128
299	954	450
300	528	302
301	433	137
302	353	113
303	611	991
304	235	12
305	544	988
306	958	520
307	521	76
308	334	23
309	264	63
310	591	913
311	532	972
312	589	956
313	568	972
314	983	621
315	418	817
316	312	39
317	334	176
DEMAND_SECTION		
1	0	
2	1	
3	1	
4	1	
5	1	
6	1	
7	1	
8	1	
9	1	
10	1	
11	1	
12	1	
13	1	
14	1	
15	1	
16	1	
17	1	
18	1	
19	1	
20	1	
21	1	
22	1	
23	1	
24	1	
25	1	
26	1	
27	1	
28	1	
29	1	
30	1	
31	1	
32	1	
33	1	
34	1	
35	1	
36	1	
37	1	
38	1	
39	1	
40	1	
41	1	
42	1	
43	1	
44	1	
45	1	
46	1	
47	1	
48	1	
49	1	
50	1	
51	1	
52	1	
53	1	
54	1	
55	1	
56	1	
57	1	
58	1	
59	1	
60	1	
61	1	
62	1	
63	1	
64	1	
65	1	
66	1	
67	1	
68	1	
69	1	
70	1	
71	1	
72	1	
73	1	
74	1	
75	1	
76	1	
77	1	
78	1	
79	1	
80	1	
81	1	
82	1	
83	1	
84	1	
85	1	
86	1	
87	1	
88	1	
89	1	
90	1	
91	1	
92	1	
93	1	
94	1	
95	1	
96	1	
97	1	
98	1	
99	1	
100	1	
101	1	
102	1	
103	1	
104	1	
105	1	
106	1	
107	1	
108	1	
109	1	
110	1	
111	1	
112	1	
113	1	
114	1	
115	1	
116	1	
117	1	
118	1	
119	1	
120	1	
121	1	
122	1	
123	1	
124	1	
125	1	
126	1	
127	1	
128	1	
129	1	
130	1	
131	1	
132	1	
133	1	
134	1	
135	1	
136	1	
137	1	
138	1	
139	1	
140	1	
141	1	
142	1	
143	1	
144	1	
145	1	
146	1	
147	1	
148	1	
149	1	
150	1	
151	1	
152	1	
153	1	
154	1	
155	1	
156	1	
157	1	
158	1	
159	1	
160	1	
161	1	
162	1	
163	1	
164	1	
165	1	
166	1	
167	1	
168	1	
169	1	
170	1	
171	1	
172	1	
173	1	
174	1	
175	1	
176	1	
177	1	
178	1	
179	1	
180	1	
181	1	
182	1	
183	1	
184	1	
185	1	
186	1	
187	1	
188	1	
189	1	
190	1	
191	1	
192	1	
193	1	
194	1	
195	1	
196	1	
197	1	
198	1	
199	1	
200	1	
201	1	
202	1	
203	1	
204	1	
205	1	
206	1	
207	1	
208	1	
209	1	
210	1	
211	1	
212	1	
213	1	
214	1	
215	1	
216	1	
217	1	
218	1	
219	1	
220	1	
221	1	
222	1	
223	1	
224	1	
225	1	
226	1	
227	1	
228	1	
229	1	
230	1	
231	1	
232	1	
233	1	
234	1	
235	1	
236	1	
237	1	
238	1	
239	1	
240	1	
241	1	
242	1	
243	1	
244	1	
245	1	
246	1	
247	1	
248	1	
249	1	
250	1	
251	1	
252	1	
253	1	
254	1	
255	1	
256	1	
257	1	
258	1	
259	1	
260	1	
261	1	
262	1	
263	1	
264	1	
265	1	
266	1	
267	1	
268	1	
269	1	
270	1	
271	1	
272	1	
273	1	
274	1	
275	1	
276	1	
277	1	
278	1	
279	1	
280	1	
281	1	
282	1	
283	1	
284	1	
285	1	
286	1	
287	1	
288	1	
289	1	
290	1	
291	1	
292	1	
293	1	
294	1	
295	1	
296	1	
297	1	
298	1	
299	1	
300	1	
301	1	
302	1	
303	1	
304	1	
305	1	
306	1	
307	1	
308	1	
309	1	
310	1	
311	1	
312	1	
313	1	
314	1	
315	1	
316	1	
317	1	
DEPOT_SECTION		
	1	
	-1	
EOF		
